benchmarks/VRPTW/TSPTW/solution/n150w20.001.txt.solution
1 100 93 96 41 23 133 66 150 135 49 44 105 34 47 68 46 87 147 126 83 32 6 26 144 63 122 65 85 138 72 119 30 148 5 149 42 4 79 125 33 95 60 43 128 52 109 69 111 18 7 99 78 97 103 12 19 98 113 101 117 15 35 61 62 118 24 73 107 31 92 129 123 48 54 64 37 2 10 120 91 131 115 38 106 142 94 143 75 74 127 112 70 124 16 84 130 108 71 141 9 82 8 132 13 146 136 57 59 77 55 11 27 89 67 45 20 80 58 56 53 137 3 114 25 21 81 139 86 28 22 39 134 102 110 116 104 50 36 29 88 76 40 140 90 14 17 121 51 151 145 
925
